514 447
662 111
325 586
181 925
232 660
969 807
991 979
435 741
775 267
47 250
124 440
539 78
74 467
767 122
848 61
389 888
626 301
541 674
337 968
416 103
28 67
177 106
327 392
318 948
784 158
394 295
895 860
641 549
921 893
11 346
977 611
396 138
859 836
535 304
122 639
913 154
69 699
69 79
216 900
178 155
981 889
204 588
322 582
117 407
756 224
44 809
208 429
79 366
872 955
742 223
182 779
239 3
321 315
696 167
237 360
554 303
632 444
638 774
868 980
100 566
891 282
44 243
101 786
474 560
976 538
260 755
41 837
523 291
158 556
533 441
957 450
277 435
814 98
387 134
200 121
626 531
418 502
188 561
403 290
245 192
584 346
890 674
831 268
858 387
365 402
139 16
818 884
709 680
631 947
679 390
899 335
937 968
510 961
242 281
648 768
99 549
184 273
387 993
421 368
569 871
